2	25
555	337	334	365	385	19	889	837	383	822	332	196	947	188	170	708	735	330	723	444	183	164	333	205	858	
164	738	781	646	448	325	670	939	377	563	919	976	107	74	490	893	227	733	488	800	64	351	609	555	68	
4877	4877	
